language Essence 1.3

letting blksize_delta be function(1 --> 8, 2 --> 7, 3 --> 7, 4 --> 7, 5 --> 7)
letting maxcars be function(1 --> 8, 2 --> 9, 3 --> 8, 4 --> 8, 5 --> 8)
letting n_cars be 300
letting n_classes be 199
letting n_options be 5
letting quantity be
        function(1 --> 1, 2 --> 8, 3 --> 1, 4 --> 1, 5 --> 1, 6 --> 1, 7 --> 10, 8 --> 8, 9 --> 24, 10 --> 1, 11 --> 1,
                 12 --> 8, 13 --> 1, 14 --> 9, 15 --> 19, 16 --> 11, 17 --> 1, 18 --> 1, 19 --> 1, 20 --> 6, 21 --> 6,
                 22 --> 2, 23 --> 1, 24 --> 1, 25 --> 1, 26 --> 1, 27 --> 1, 28 --> 1, 29 --> 1, 30 --> 1, 31 --> 2,
                 32 --> 1, 33 --> 1, 34 --> 1, 35 --> 1, 36 --> 1, 37 --> 1, 38 --> 1, 39 --> 1, 40 --> 1, 41 --> 1,
                 42 --> 1, 43 --> 1, 44 --> 1, 45 --> 1, 46 --> 1, 47 --> 1, 48 --> 1, 49 --> 1, 50 --> 1, 51 --> 1,
                 52 --> 1, 53 --> 1, 54 --> 1, 55 --> 1, 56 --> 1, 57 --> 1, 58 --> 1, 59 --> 1, 60 --> 1, 61 --> 1,
                 62 --> 1, 63 --> 1, 64 --> 1, 65 --> 1, 66 --> 1, 67 --> 1, 68 --> 1, 69 --> 1, 70 --> 1, 71 --> 1,
                 72 --> 1, 73 --> 1, 74 --> 1, 75 --> 1, 76 --> 1, 77 --> 1, 78 --> 1, 79 --> 1, 80 --> 1, 81 --> 1,
                 82 --> 1, 83 --> 1, 84 --> 1, 85 --> 1, 86 --> 1, 87 --> 1, 88 --> 1, 89 --> 1, 90 --> 1, 91 --> 1,
                 92 --> 1, 93 --> 1, 94 --> 1, 95 --> 1, 96 --> 1, 97 --> 1, 98 --> 1, 99 --> 1, 100 --> 1, 101 --> 1,
                 102 --> 1, 103 --> 1, 104 --> 1, 105 --> 1, 106 --> 1, 107 --> 1, 108 --> 1, 109 --> 1, 110 --> 1,
                 111 --> 1, 112 --> 1, 113 --> 1, 114 --> 1, 115 --> 1, 116 --> 1, 117 --> 1, 118 --> 1, 119 --> 1,
                 120 --> 1, 121 --> 1, 122 --> 1, 123 --> 1, 124 --> 1, 125 --> 1, 126 --> 1, 127 --> 1, 128 --> 1,
                 129 --> 1, 130 --> 1, 131 --> 1, 132 --> 1, 133 --> 1, 134 --> 1, 135 --> 1, 136 --> 1, 137 --> 1,
                 138 --> 1, 139 --> 1, 140 --> 1, 141 --> 1, 142 --> 1, 143 --> 1, 144 --> 1, 145 --> 1, 146 --> 1,
                 147 --> 1, 148 --> 1, 149 --> 1, 150 --> 1, 151 --> 1, 152 --> 1, 153 --> 1, 154 --> 1, 155 --> 1,
                 156 --> 1, 157 --> 1, 158 --> 1, 159 --> 1, 160 --> 1, 161 --> 1, 162 --> 1, 163 --> 1, 164 --> 1,
                 165 --> 1, 166 --> 1, 167 --> 1, 168 --> 1, 169 --> 1, 170 --> 1, 171 --> 1, 172 --> 1, 173 --> 1,
                 174 --> 1, 175 --> 1, 176 --> 1, 177 --> 1, 178 --> 1, 179 --> 1, 180 --> 1, 181 --> 1, 182 --> 1,
                 183 --> 1, 184 --> 1, 185 --> 1, 186 --> 1, 187 --> 1, 188 --> 1, 189 --> 1, 190 --> 1, 191 --> 1,
                 192 --> 1, 193 --> 1, 194 --> 1, 195 --> 1, 196 --> 1, 197 --> 1, 198 --> 1, 199 --> 1)
letting usage be
        relation((1, 2), (2, 2), (2, 4), (3, 2), (3, 4), (4, 5), (5, 2), (5, 4), (6, 1), (7, 1), (7, 5), (8, 1), (8, 5),
                 (9, 5), (10, 1), (11, 1), (11, 4), (12, 5), (13, 2), (13, 5), (14, 5), (15, 1), (15, 4), (16, 1),
                 (17, 5), (18, 4), (18, 5), (19, 5), (20, 5), (21, 5), (22, 3), (23, 5), (24, 1), (25, 3), (26, 3),
                 (26, 4), (27, 5), (28, 2), (29, 5), (30, 3), (31, 4), (32, 2), (33, 5), (34, 3), (35, 5), (36, 4),
                 (37, 2), (38, 3), (39, 1), (40, 1), (40, 3), (41, 5), (42, 4), (43, 5), (44, 5), (45, 5), (46, 4),
                 (47, 5), (48, 4), (49, 1), (50, 4), (50, 5), (51, 4), (52, 1), (53, 1), (54, 5), (55, 5), (56, 1),
                 (56, 5), (57, 2), (57, 3), (58, 1), (58, 3), (59, 4), (60, 5), (61, 3), (61, 4), (62, 2), (62, 3),
                 (63, 2), (64, 5), (65, 5), (66, 1), (67, 5), (68, 4), (69, 5), (70, 5), (71, 2), (71, 5), (72, 5),
                 (73, 4), (74, 1), (74, 2), (74, 3), (75, 3), (76, 5), (77, 1), (77, 2), (78, 1), (78, 2), (78, 3),
                 (79, 5), (80, 1), (81, 5), (82, 1), (82, 3), (83, 3), (83, 4), (84, 5), (85, 2), (85, 3), (85, 5),
                 (86, 2), (87, 5), (88, 5), (89, 5), (90, 1), (91, 4), (92, 1), (93, 5), (94, 1), (94, 2), (94, 5),
                 (95, 1), (96, 5), (97, 1), (97, 3), (97, 5), (98, 4), (99, 4), (100, 5), (101, 5), (102, 2), (103, 2),
                 (103, 4), (104, 5), (105, 1), (105, 3), (105, 5), (106, 1), (107, 2), (108, 1), (109, 3), (109, 4),
                 (110, 3), (111, 5), (112, 2), (112, 4), (112, 5), (113, 4), (114, 4), (115, 1), (115, 2), (115, 4),
                 (116, 5), (117, 5), (118, 5), (119, 1), (120, 1), (120, 2), (121, 4), (122, 1), (122, 3), (123, 5),
                 (124, 5), (125, 5), (126, 2), (126, 3), (127, 3), (127, 4), (128, 1), (129, 4), (130, 5), (131, 5),
                 (132, 5), (133, 5), (134, 2), (135, 5), (136, 2), (137, 5), (138, 1), (138, 2), (139, 4), (140, 5),
                 (141, 5), (142, 5), (143, 5), (144, 5), (145, 3), (146, 5), (147, 4), (148, 4), (149, 3), (150, 2),
                 (151, 3), (152, 4), (153, 5), (154, 3), (155, 1), (156, 1), (156, 2), (157, 2), (157, 3), (158, 3),
                 (159, 2), (159, 3), (160, 3), (160, 4), (161, 2), (162, 4), (163, 3), (164, 2), (165, 2), (165, 4),
                 (166, 2), (167, 5), (168, 4), (169, 5), (170, 3), (171, 1), (171, 2), (172, 3), (173, 4), (174, 2),
                 (175, 5), (176, 4), (177, 2), (177, 3), (178, 3), (178, 4), (179, 1), (180, 5), (181, 5), (182, 5),
                 (183, 3), (184, 5), (185, 1), (185, 2), (185, 3), (186, 5), (187, 2), (187, 4), (188, 4), (189, 3),
                 (189, 4), (190, 5), (191, 1), (192, 5), (193, 4), (194, 5), (195, 5), (196, 2), (197, 1), (198, 1),
                 (199, 4))
$ Visualisation for usage
$   1   2
$   2   2
$   2   4
$   3   2
$   3   4
$   4   5
$   5   2
$   5   4
$   6   1
$   7   1
$   7   5
$   8   1
$   8   5
$   9   5
$  10   1
$  11   1
$  11   4
$  12   5
$  13   2
$  13   5
$  14   5
$  15   1
$  15   4
$  16   1
$  17   5
$  18   4
$  18   5
$  19   5
$  20   5
$  21   5
$  22   3
$  23   5
$  24   1
$  25   3
$  26   3
$  26   4
$  27   5
$  28   2
$  29   5
$  30   3
$  31   4
$  32   2
$  33   5
$  34   3
$  35   5
$  36   4
$  37   2
$  38   3
$  39   1
$  40   1
$  40   3
$  41   5
$  42   4
$  43   5
$  44   5
$  45   5
$  46   4
$  47   5
$  48   4
$  49   1
$  50   4
$  50   5
$  51   4
$  52   1
$  53   1
$  54   5
$  55   5
$  56   1
$  56   5
$  57   2
$  57   3
$  58   1
$  58   3
$  59   4
$  60   5
$  61   3
$  61   4
$  62   2
$  62   3
$  63   2
$  64   5
$  65   5
$  66   1
$  67   5
$  68   4
$  69   5
$  70   5
$  71   2
$  71   5
$  72   5
$  73   4
$  74   1
$  74   2
$  74   3
$  75   3
$  76   5
$  77   1
$  77   2
$  78   1
$  78   2
$  78   3
$  79   5
$  80   1
$  81   5
$  82   1
$  82   3
$  83   3
$  83   4
$  84   5
$  85   2
$  85   3
$  85   5
$  86   2
$  87   5
$  88   5
$  89   5
$  90   1
$  91   4
$  92   1
$  93   5
$  94   1
$  94   2
$  94   5
$  95   1
$  96   5
$  97   1
$  97   3
$  97   5
$  98   4
$  99   4
$ 100   5
$ 101   5
$ 102   2
$ 103   2
$ 103   4
$ 104   5
$ 105   1
$ 105   3
$ 105   5
$ 106   1
$ 107   2
$ 108   1
$ 109   3
$ 109   4
$ 110   3
$ 111   5
$ 112   2
$ 112   4
$ 112   5
$ 113   4
$ 114   4
$ 115   1
$ 115   2
$ 115   4
$ 116   5
$ 117   5
$ 118   5
$ 119   1
$ 120   1
$ 120   2
$ 121   4
$ 122   1
$ 122   3
$ 123   5
$ 124   5
$ 125   5
$ 126   2
$ 126   3
$ 127   3
$ 127   4
$ 128   1
$ 129   4
$ 130   5
$ 131   5
$ 132   5
$ 133   5
$ 134   2
$ 135   5
$ 136   2
$ 137   5
$ 138   1
$ 138   2
$ 139   4
$ 140   5
$ 141   5
$ 142   5
$ 143   5
$ 144   5
$ 145   3
$ 146   5
$ 147   4
$ 148   4
$ 149   3
$ 150   2
$ 151   3
$ 152   4
$ 153   5
$ 154   3
$ 155   1
$ 156   1
$ 156   2
$ 157   2
$ 157   3
$ 158   3
$ 159   2
$ 159   3
$ 160   3
$ 160   4
$ 161   2
$ 162   4
$ 163   3
$ 164   2
$ 165   2
$ 165   4
$ 166   2
$ 167   5
$ 168   4
$ 169   5
$ 170   3
$ 171   1
$ 171   2
$ 172   3
$ 173   4
$ 174   2
$ 175   5
$ 176   4
$ 177   2
$ 177   3
$ 178   3
$ 178   4
$ 179   1
$ 180   5
$ 181   5
$ 182   5
$ 183   3
$ 184   5
$ 185   1
$ 185   2
$ 185   3
$ 186   5
$ 187   2
$ 187   4
$ 188   4
$ 189   3
$ 189   4
$ 190   5
$ 191   1
$ 192   5
$ 193   4
$ 194   5
$ 195   5
$ 196   2
$ 197   1
$ 198   1
$ 199   4

